Total weight: 1028.6863136407558
Route 1: 0 96 93 67 94 92 56 64 66 90 69 98 82 65 83 57 99 52 86 87 9 10 12 78 60 88 55 61 44 42 100 70 68 0 
Route 2: 0 14 15 11 22 24 25 23 48 21 74 53 0 
Route 3: 0 81 54 71 72 41 39 38 37 35 36 40 43 1 3 5 45 46 79 8 6 2 4 7 73 47 17 16 13 59 97 75 58 77 0 
Route 4: 0 80 91 95 62 50 34 31 29 27 26 28 30 32 33 89 76 18 19 49 20 51 63 85 84 0 
